15 -36 -38 0
-17 -15 -36 0
-36 -38 0
d 15 -36 -38 0
-15 17 36 0
17 -38 0
15 10 -38 0
-15 -38 0
-17 -38 0
d -11 -17 -38 0
-38 0
15 -17 0
-17 0
11 0
-15 0
12 0
18 0
35 0
20 0
14 0
-2 0
-29 0
-30 0
-32 0
-36 0
5 0
0
